(set-info :smt-lib-version 2.7)
(set-logic ALL)
(set-info :source |
Generated on: 2026-06-22
Generator: pog2smtlib-2.7 github.com/CLEARSY/pog2smtlib-2.7 (-l HO_ALL -rpX)
Application: Discharging a proof obligation generated by aTelierB from an anonymized B machine
Target solver: CVC5
Time limit: 1200.0
|)
(set-info :license "www.gnu.org/licenses/gpl-3.0.en.html")
(set-info :category "industrial")
(set-info :status unknown)

(declare-sort P 1)
(declare-datatype |s8| ((s12)(s13)(s14)))
(declare-datatype C (par (T1 T2) ((maplet (fst T1) (snd T2)))))
(define-sort |Z| () Int)
(define-sort |POW s8| () (P |s8|))
(define-sort |(Z x s8)| () (C |Z| |s8|))
(define-sort |POW Z| () (P |Z|))
(declare-fun |set.in s8| (|s8| |POW s8|) Bool)
(define-sort |POW (Z x s8)| () (P |(Z x s8)|))
(declare-fun |set.in Z| (|Z| |POW Z|) Bool)
(declare-datatype |s16| ((s17)(s18)(s19)(s20)(s21)))
(declare-fun |set.in (Z x s8)| (|(Z x s8)| |POW (Z x s8)|) Bool)
(define-sort |POW POW (Z x s8)| () (P |POW (Z x s8)|))
(define-sort |(s16 x POW (Z x s8))| () (C |s16| |POW (Z x s8)|))
(define-sort |POW s16| () (P |s16|))
(define-sort |POW POW Z| () (P |POW Z|))
(define-sort |(s16 x POW Z)| () (C |s16| |POW Z|))
(declare-fun |set.in POW (Z x s8)| (|POW (Z x s8)| |POW POW (Z x s8)|) Bool)
(define-sort |POW (s16 x POW (Z x s8))| () (P |(s16 x POW (Z x s8))|))
(declare-fun |set.in s16| (|s16| |POW s16|) Bool)
(declare-fun |set.in POW Z| (|POW Z| |POW POW Z|) Bool)
(define-sort |POW (s16 x POW Z)| () (P |(s16 x POW Z)|))
(define-sort |(Z x Z)| () (C |Z| |Z|))
(declare-fun |set.in (s16 x POW (Z x s8))| (|(s16 x POW (Z x s8))| |POW (s16 x POW (Z x s8))|) Bool)
(define-sort |POW POW (s16 x POW (Z x s8))| () (P |POW (s16 x POW (Z x s8))|))
(declare-fun |set.in (s16 x POW Z)| (|(s16 x POW Z)| |POW (s16 x POW Z)|) Bool)
(define-sort |POW POW (s16 x POW Z)| () (P |POW (s16 x POW Z)|))
(define-sort |POW (Z x Z)| () (P |(Z x Z)|))
(declare-fun |set.subseteq (s16 x POW (Z x s8))| (|POW (s16 x POW (Z x s8))| |POW (s16 x POW (Z x s8))|) Bool)
(assert (!
    (forall ((s |POW (s16 x POW (Z x s8))|) (t |POW (s16 x POW (Z x s8))|))
      (=
        (|set.subseteq (s16 x POW (Z x s8))| s t)
        (forall ((e |(s16 x POW (Z x s8))|)) (=> (|set.in (s16 x POW (Z x s8))| e s) (|set.in (s16 x POW (Z x s8))| e t)))
      )
    )
    :named |ax.set.subseteq (s16 x POW (Z x s8))|))
(declare-fun |set.in POW (s16 x POW (Z x s8))| (|POW (s16 x POW (Z x s8))| |POW POW (s16 x POW (Z x s8))|) Bool)
(declare-fun |set.subseteq (s16 x POW Z)| (|POW (s16 x POW Z)| |POW (s16 x POW Z)|) Bool)
(assert (!
    (forall ((s |POW (s16 x POW Z)|) (t |POW (s16 x POW Z)|))
      (=
        (|set.subseteq (s16 x POW Z)| s t)
        (forall ((e |(s16 x POW Z)|)) (=> (|set.in (s16 x POW Z)| e s) (|set.in (s16 x POW Z)| e t)))
      )
    )
    :named |ax.set.subseteq (s16 x POW Z)|))
(declare-fun |set.in POW (s16 x POW Z)| (|POW (s16 x POW Z)| |POW POW (s16 x POW Z)|) Bool)
(declare-fun |set.in (Z x Z)| (|(Z x Z)| |POW (Z x Z)|) Bool)
(define-sort |POW POW (Z x Z)| () (P |POW (Z x Z)|))
(declare-fun |sub-sets (s16 x POW (Z x s8))| (|POW (s16 x POW (Z x s8))|) |POW POW (s16 x POW (Z x s8))|)
(assert (!
  (forall ((s |POW (s16 x POW (Z x s8))|) (t |POW (s16 x POW (Z x s8))|))
    (=
      (|set.in POW (s16 x POW (Z x s8))| s (|sub-sets (s16 x POW (Z x s8))| t))
      (|set.subseteq (s16 x POW (Z x s8))| s t)))
  :named |ax.sub-sets (s16 x POW (Z x s8))|))
(declare-fun |set.product s16 POW (Z x s8)| (|POW s16| |POW POW (Z x s8)|) |POW (s16 x POW (Z x s8))|)
(assert (!
  (forall ((s1 |POW s16|) (s2 |POW POW (Z x s8)|))
    (forall ((p |(s16 x POW (Z x s8))|))
      (= (|set.in (s16 x POW (Z x s8))| p (|set.product s16 POW (Z x s8)| s1 s2))
        (and (|set.in s16| (fst p) s1) (|set.in POW (Z x s8)| (snd p) s2)))))
  :named |ax.set.in.product.1 (s16 x POW (Z x s8))|))
(assert (!
  (forall ((s1 |POW s16|) (s2 |POW POW (Z x s8)|))
    (forall ((x1 |s16|) (x2 |POW (Z x s8)|))
      (= (|set.in (s16 x POW (Z x s8))| (maplet x1 x2) (|set.product s16 POW (Z x s8)| s1 s2))
        (and (|set.in s16| x1 s1) (|set.in POW (Z x s8)| x2 s2)))))
  :named |ax.set.in.product.2 (s16 x POW (Z x s8))|))
(assert (!
  (forall ((s |POW (Z x s8)|) (t |POW (Z x s8)|))
    (=
      (= s t)
      (forall ((e |(Z x s8)|)) (= (|set.in (Z x s8)| e s) (|set.in (Z x s8)| e t)))))
  :named |ax.set.eq (Z x s8)|))
(declare-fun |sub-sets (s16 x POW Z)| (|POW (s16 x POW Z)|) |POW POW (s16 x POW Z)|)
(assert (!
  (forall ((s |POW (s16 x POW Z)|) (t |POW (s16 x POW Z)|))
    (=
      (|set.in POW (s16 x POW Z)| s (|sub-sets (s16 x POW Z)| t))
      (|set.subseteq (s16 x POW Z)| s t)))
  :named |ax.sub-sets (s16 x POW Z)|))
(declare-fun |set.product s16 POW Z| (|POW s16| |POW POW Z|) |POW (s16 x POW Z)|)
(assert (!
  (forall ((s1 |POW s16|) (s2 |POW POW Z|))
    (forall ((p |(s16 x POW Z)|))
      (= (|set.in (s16 x POW Z)| p (|set.product s16 POW Z| s1 s2))
        (and (|set.in s16| (fst p) s1) (|set.in POW Z| (snd p) s2)))))
  :named |ax.set.in.product.1 (s16 x POW Z)|))
(assert (!
  (forall ((s1 |POW s16|) (s2 |POW POW Z|))
    (forall ((x1 |s16|) (x2 |POW Z|))
      (= (|set.in (s16 x POW Z)| (maplet x1 x2) (|set.product s16 POW Z| s1 s2))
        (and (|set.in s16| x1 s1) (|set.in POW Z| x2 s2)))))
  :named |ax.set.in.product.2 (s16 x POW Z)|))
(assert (!
  (forall ((s |POW Z|) (t |POW Z|))
    (=
      (= s t)
      (forall ((e |Z|)) (= (|set.in Z| e s) (|set.in Z| e t)))))
  :named |ax.set.eq Z|))
(declare-fun |set.subseteq (Z x Z)| (|POW (Z x Z)| |POW (Z x Z)|) Bool)
(assert (!
    (forall ((s |POW (Z x Z)|) (t |POW (Z x Z)|))
      (=
        (|set.subseteq (Z x Z)| s t)
        (forall ((e |(Z x Z)|)) (=> (|set.in (Z x Z)| e s) (|set.in (Z x Z)| e t)))
      )
    )
    :named |ax.set.subseteq (Z x Z)|))
(declare-fun |set.in POW (Z x Z)| (|POW (Z x Z)| |POW POW (Z x Z)|) Bool)
(declare-fun |relations s16 POW (Z x s8)| (|POW s16| |POW POW (Z x s8)|) |POW POW (s16 x POW (Z x s8))|)
(assert (!
  (forall ((X |POW s16|) (Y |POW POW (Z x s8)|))
    (= (|relations s16 POW (Z x s8)| X Y)
       (|sub-sets (s16 x POW (Z x s8))| (|set.product s16 POW (Z x s8)| X Y))))
    :named |def.relations (s16 x POW (Z x s8))|))
(declare-fun |functions s16 POW (Z x s8)| (|POW s16| |POW POW (Z x s8)|) |POW POW (s16 x POW (Z x s8))|)
(assert (!
  (forall ((X |POW s16|) (Y |POW POW (Z x s8)|))
    (forall ((f |POW (s16 x POW (Z x s8))|))
      (= (|set.in POW (s16 x POW (Z x s8))| f (|functions s16 POW (Z x s8)| X Y))
         (forall ((p |(s16 x POW (Z x s8))|) (q |(s16 x POW (Z x s8))|))
           (=> (and (|set.in (s16 x POW (Z x s8))| p f) (|set.in (s16 x POW (Z x s8))| q f) (= (fst p) (fst q)))
               (= (snd p) (snd q)))))))
:named |ax:set.in.functions (s16 x POW (Z x s8))|))
(declare-fun |rel.domain s16 POW (Z x s8)| (|POW (s16 x POW (Z x s8))|) |POW s16|)
(assert (!
  (forall ((r |POW (s16 x POW (Z x s8))|) (e |s16|))
    (= (|set.in s16| e (|rel.domain s16 POW (Z x s8)| r))
       (exists ((y |POW (Z x s8)|)) (|set.in (s16 x POW (Z x s8))| (maplet e y) r))))
  :named |ax:set.in.domain (s16 x POW (Z x s8))|))
(declare-fun |set.subseteq (Z x s8)| (|POW (Z x s8)| |POW (Z x s8)|) Bool)
(assert (!
    (forall ((s |POW (Z x s8)|) (t |POW (Z x s8)|))
      (=
        (|set.subseteq (Z x s8)| s t)
        (forall ((e |(Z x s8)|)) (=> (|set.in (Z x s8)| e s) (|set.in (Z x s8)| e t)))
      )
    )
    :named |ax.set.subseteq (Z x s8)|))
(declare-fun |relations s16 POW Z| (|POW s16| |POW POW Z|) |POW POW (s16 x POW Z)|)
(assert (!
  (forall ((X |POW s16|) (Y |POW POW Z|))
    (= (|relations s16 POW Z| X Y)
       (|sub-sets (s16 x POW Z)| (|set.product s16 POW Z| X Y))))
    :named |def.relations (s16 x POW Z)|))
(declare-fun |functions s16 POW Z| (|POW s16| |POW POW Z|) |POW POW (s16 x POW Z)|)
(assert (!
  (forall ((X |POW s16|) (Y |POW POW Z|))
    (forall ((f |POW (s16 x POW Z)|))
      (= (|set.in POW (s16 x POW Z)| f (|functions s16 POW Z| X Y))
         (forall ((p |(s16 x POW Z)|) (q |(s16 x POW Z)|))
           (=> (and (|set.in (s16 x POW Z)| p f) (|set.in (s16 x POW Z)| q f) (= (fst p) (fst q)))
               (= (snd p) (snd q)))))))
:named |ax:set.in.functions (s16 x POW Z)|))
(declare-fun |rel.domain s16 POW Z| (|POW (s16 x POW Z)|) |POW s16|)
(assert (!
  (forall ((r |POW (s16 x POW Z)|) (e |s16|))
    (= (|set.in s16| e (|rel.domain s16 POW Z| r))
       (exists ((y |POW Z|)) (|set.in (s16 x POW Z)| (maplet e y) r))))
  :named |ax:set.in.domain (s16 x POW Z)|))
(declare-fun |sub-sets (Z x Z)| (|POW (Z x Z)|) |POW POW (Z x Z)|)
(assert (!
  (forall ((s |POW (Z x Z)|) (t |POW (Z x Z)|))
    (=
      (|set.in POW (Z x Z)| s (|sub-sets (Z x Z)| t))
      (|set.subseteq (Z x Z)| s t)))
  :named |ax.sub-sets (Z x Z)|))
(declare-fun |set.product Z Z| (|POW Z| |POW Z|) |POW (Z x Z)|)
(assert (!
  (forall ((s1 |POW Z|) (s2 |POW Z|))
    (forall ((p |(Z x Z)|))
      (= (|set.in (Z x Z)| p (|set.product Z Z| s1 s2))
        (and (|set.in Z| (fst p) s1) (|set.in Z| (snd p) s2)))))
  :named |ax.set.in.product.1 (Z x Z)|))
(assert (!
  (forall ((s1 |POW Z|) (s2 |POW Z|))
    (forall ((x1 |Z|) (x2 |Z|))
      (= (|set.in (Z x Z)| (maplet x1 x2) (|set.product Z Z| s1 s2))
        (and (|set.in Z| x1 s1) (|set.in Z| x2 s2)))))
  :named |ax.set.in.product.2 (Z x Z)|))
(define-sort |BOOL| () Bool)
(declare-const |set.empty Z| |POW Z|)
(assert (!
  (forall ((e |Z|)) (not (|set.in Z| e |set.empty Z|)))
  :named |ax.set.in.empty Z|))
(declare-fun |functions.partial s16 POW (Z x s8)| (|POW s16| |POW POW (Z x s8)|) |POW POW (s16 x POW (Z x s8))|)
(assert (!
  (forall ((e1 |POW s16|) (e2 |POW POW (Z x s8)|))
    (forall ((f |POW (s16 x POW (Z x s8))|))
      (= (|set.in POW (s16 x POW (Z x s8))| f (|functions.partial s16 POW (Z x s8)| e1 e2))
         (and (|set.in POW (s16 x POW (Z x s8))| f (|relations s16 POW (Z x s8)| e1 e2))
              (|set.in POW (s16 x POW (Z x s8))| f (|functions s16 POW (Z x s8)| e1 e2))))))
  :named |ax:def.pfun (s16 x POW (Z x s8))|)
)
(declare-fun |relations.total s16 POW (Z x s8)| (|POW s16| |POW POW (Z x s8)|) |POW POW (s16 x POW (Z x s8))|)
(assert (!
  (forall ((X |POW s16|) (Y |POW POW (Z x s8)|))
    (forall ((f |POW (s16 x POW (Z x s8))|))
      (= (|set.in POW (s16 x POW (Z x s8))| f (|relations.total s16 POW (Z x s8)| X Y))
         (= (|rel.domain s16 POW (Z x s8)| f) X))))
 :named |ax:set.in.relations.total (s16 x POW (Z x s8))|))
(declare-fun |sub-sets (Z x s8)| (|POW (Z x s8)|) |POW POW (Z x s8)|)
(assert (!
  (forall ((s |POW (Z x s8)|) (t |POW (Z x s8)|))
    (=
      (|set.in POW (Z x s8)| s (|sub-sets (Z x s8)| t))
      (|set.subseteq (Z x s8)| s t)))
  :named |ax.sub-sets (Z x s8)|))
(declare-fun |set.product Z s8| (|POW Z| |POW s8|) |POW (Z x s8)|)
(assert (!
  (forall ((s1 |POW Z|) (s2 |POW s8|))
    (forall ((p |(Z x s8)|))
      (= (|set.in (Z x s8)| p (|set.product Z s8| s1 s2))
        (and (|set.in Z| (fst p) s1) (|set.in s8| (snd p) s2)))))
  :named |ax.set.in.product.1 (Z x s8)|))
(assert (!
  (forall ((s1 |POW Z|) (s2 |POW s8|))
    (forall ((x1 |Z|) (x2 |s8|))
      (= (|set.in (Z x s8)| (maplet x1 x2) (|set.product Z s8| s1 s2))
        (and (|set.in Z| x1 s1) (|set.in s8| x2 s2)))))
  :named |ax.set.in.product.2 (Z x s8)|))
(declare-fun |functions.partial s16 POW Z| (|POW s16| |POW POW Z|) |POW POW (s16 x POW Z)|)
(assert (!
  (forall ((e1 |POW s16|) (e2 |POW POW Z|))
    (forall ((f |POW (s16 x POW Z)|))
      (= (|set.in POW (s16 x POW Z)| f (|functions.partial s16 POW Z| e1 e2))
         (and (|set.in POW (s16 x POW Z)| f (|relations s16 POW Z| e1 e2))
              (|set.in POW (s16 x POW Z)| f (|functions s16 POW Z| e1 e2))))))
  :named |ax:def.pfun (s16 x POW Z)|)
)
(declare-fun |relations.total s16 POW Z| (|POW s16| |POW POW Z|) |POW POW (s16 x POW Z)|)
(assert (!
  (forall ((X |POW s16|) (Y |POW POW Z|))
    (forall ((f |POW (s16 x POW Z)|))
      (= (|set.in POW (s16 x POW Z)| f (|relations.total s16 POW Z| X Y))
         (= (|rel.domain s16 POW Z| f) X))))
 :named |ax:set.in.relations.total (s16 x POW Z)|))
(declare-fun |set.subseteq Z| (|POW Z| |POW Z|) Bool)
(assert (!
    (forall ((s |POW Z|) (t |POW Z|))
      (=
        (|set.subseteq Z| s t)
        (forall ((e |Z|)) (=> (|set.in Z| e s) (|set.in Z| e t)))
      )
    )
    :named |ax.set.subseteq Z|))
(declare-fun |relations Z Z| (|POW Z| |POW Z|) |POW POW (Z x Z)|)
(assert (!
  (forall ((X |POW Z|) (Y |POW Z|))
    (= (|relations Z Z| X Y)
       (|sub-sets (Z x Z)| (|set.product Z Z| X Y))))
    :named |def.relations (Z x Z)|))
(declare-fun |functions Z Z| (|POW Z| |POW Z|) |POW POW (Z x Z)|)
(assert (!
  (forall ((X |POW Z|) (Y |POW Z|))
    (forall ((f |POW (Z x Z)|))
      (= (|set.in POW (Z x Z)| f (|functions Z Z| X Y))
         (forall ((p |(Z x Z)|) (q |(Z x Z)|))
           (=> (and (|set.in (Z x Z)| p f) (|set.in (Z x Z)| q f) (= (fst p) (fst q)))
               (= (snd p) (snd q)))))))
:named |ax:set.in.functions (Z x Z)|))
(define-sort |? (Z x Z)| () (-> |(Z x Z)| Bool))
(declare-const |set.intent (Z x Z)| (-> |? (Z x Z)| |POW (Z x Z)|))
(assert (!
  (forall ((p |? (Z x Z)|))
    (forall ((x |(Z x Z)|))
      (= (|set.in (Z x Z)| x (|set.intent (Z x Z)| p))
         (@ p x))))
  :named |ax:set.in.intent (Z x Z)|))
(declare-const s23 |Z|)
(declare-const s33 |Z|)
(declare-const s25 |Z|)
(declare-const s28 |Z|)
(declare-const s45 |Z|)
(declare-const s43 |Z|)
(declare-const s16 |POW s16|)
(declare-const s24 |POW Z|)
(declare-const s44 |BOOL|)
(declare-const s31 |Z|)
(declare-const s27 |POW Z|)
(declare-const s1 |Z|)
(declare-const s22 |Z|)
(declare-const s38 |POW (Z x Z)|)
(declare-const s26 |Z|)
(declare-const s42 |BOOL|)
(declare-const s47 |POW (s16 x POW (Z x s8))|)
(declare-const s32 |Z|)
(declare-const s41 |POW (s16 x POW Z)|)
(declare-const s50 |POW (s16 x POW (Z x s8))|)
(declare-const s48 |POW (s16 x POW (Z x s8))|)
(declare-const s49 |POW (s16 x POW (Z x s8))|)
(declare-const s0 |POW Z|)
(declare-fun |min| (|POW Z|) |Z|)
(assert (!
  (forall ((s |POW Z|))
    (=> (not (= s |set.empty Z|)) (|set.in Z| (|min| s) s)))
  :named |ax.min.is.member|))
 (assert (!
   (forall ((s |POW Z|))
     (forall ((e |Z|))
        (=> (|set.in Z| e s) (<= (|min| s) e))))
  :named |ax.min.is.ge|))
(declare-fun |set.inter (Z x s8)| (|POW (Z x s8)| |POW (Z x s8)|) |POW (Z x s8)|)
(assert (!
  (forall ((e |(Z x s8)|) (s |POW (Z x s8)|) (t |POW (Z x s8)|))
    (= (|set.in (Z x s8)| e (|set.inter (Z x s8)| s t))
       (and (|set.in (Z x s8)| e s) (|set.in (Z x s8)| e t))))
  :named |ax.set.in.inter (Z x s8)|))
(declare-fun |fun.eval s16 POW (Z x s8)| (|POW (s16 x POW (Z x s8))| |s16|) |POW (Z x s8)|)
 (assert (!
    (forall ((f |POW (s16 x POW (Z x s8))|)(x |s16|))
        (|set.in (s16 x POW (Z x s8))| (maplet x (|fun.eval s16 POW (Z x s8)| f x)) f))
    :named |ax.fun.eval (s16 x POW (Z x s8))|))
(declare-const |set.empty (Z x s8)| |POW (Z x s8)|)
(assert (!
  (forall ((e |(Z x s8)|)) (not (|set.in (Z x s8)| e |set.empty (Z x s8)|)))
  :named |ax.set.in.empty (Z x s8)|))
(declare-fun |set.inter Z| (|POW Z| |POW Z|) |POW Z|)
(assert (!
  (forall ((e |Z|) (s |POW Z|) (t |POW Z|))
    (= (|set.in Z| e (|set.inter Z| s t))
       (and (|set.in Z| e s) (|set.in Z| e t))))
  :named |ax.set.in.inter Z|))
(declare-fun |functions.total s16 POW (Z x s8)| (|POW s16| |POW POW (Z x s8)|) |POW POW (s16 x POW (Z x s8))|)
(assert (!
  (forall ((e1 |POW s16|) (e2 |POW POW (Z x s8)|))
    (forall ((f |POW (s16 x POW (Z x s8))|))
      (= (|set.in POW (s16 x POW (Z x s8))| f (|functions.total s16 POW (Z x s8)| e1 e2))
         (and (|set.in POW (s16 x POW (Z x s8))| f (|functions.partial s16 POW (Z x s8)| e1 e2))
              (|set.in POW (s16 x POW (Z x s8))| f (|relations.total s16 POW (Z x s8)| e1 e2))))))
  :named |ax:def.tfun (s16 x POW (Z x s8))|))
(declare-fun |rel.domain Z Z| (|POW (Z x Z)|) |POW Z|)
(assert (!
  (forall ((r |POW (Z x Z)|) (e |Z|))
    (= (|set.in Z| e (|rel.domain Z Z| r))
       (exists ((y |Z|)) (|set.in (Z x Z)| (maplet e y) r))))
  :named |ax:set.in.domain (Z x Z)|))
(define-sort |? s8| () (-> |s8| Bool))
(declare-const |set.intent s8| (-> |? s8| |POW s8|))
(assert (!
  (forall ((p |? s8|))
    (forall ((x |s8|))
      (= (|set.in s8| x (|set.intent s8| p))
         (@ p x))))
  :named |ax:set.in.intent s8|))
(declare-fun |relations Z s8| (|POW Z| |POW s8|) |POW POW (Z x s8)|)
(assert (!
  (forall ((X |POW Z|) (Y |POW s8|))
    (= (|relations Z s8| X Y)
       (|sub-sets (Z x s8)| (|set.product Z s8| X Y))))
    :named |def.relations (Z x s8)|))
(declare-fun |functions.total s16 POW Z| (|POW s16| |POW POW Z|) |POW POW (s16 x POW Z)|)
(assert (!
  (forall ((e1 |POW s16|) (e2 |POW POW Z|))
    (forall ((f |POW (s16 x POW Z)|))
      (= (|set.in POW (s16 x POW Z)| f (|functions.total s16 POW Z| e1 e2))
         (and (|set.in POW (s16 x POW Z)| f (|functions.partial s16 POW Z| e1 e2))
              (|set.in POW (s16 x POW Z)| f (|relations.total s16 POW Z| e1 e2))))))
  :named |ax:def.tfun (s16 x POW Z)|))
(declare-fun |sub-sets Z| (|POW Z|) |POW POW Z|)
(assert (!
  (forall ((s |POW Z|) (t |POW Z|))
    (=
      (|set.in POW Z| s (|sub-sets Z| t))
      (|set.subseteq Z| s t)))
  :named |ax.sub-sets Z|))
(declare-fun |interval| (|Z| |Z|) |POW Z|)
 (assert (!
    (forall ((l |Z|) (u |Z|) (e |Z|))
        (= (|set.in Z| e (|interval| l u))
            (and (<= l e) (<= e u))))
    :named |ax.set.in.interval|))
(declare-fun |functions.partial Z Z| (|POW Z| |POW Z|) |POW POW (Z x Z)|)
(assert (!
  (forall ((e1 |POW Z|) (e2 |POW Z|))
    (forall ((f |POW (Z x Z)|))
      (= (|set.in POW (Z x Z)| f (|functions.partial Z Z| e1 e2))
         (and (|set.in POW (Z x Z)| f (|relations Z Z| e1 e2))
              (|set.in POW (Z x Z)| f (|functions Z Z| e1 e2))))))
  :named |ax:def.pfun (Z x Z)|)
)
(declare-fun |~ Z Z| (|POW (Z x Z)|) |POW (Z x Z)|)
(assert (!
  (forall ((R |POW (Z x Z)|))
    (= (|~ Z Z| R)
       (|set.intent (Z x Z)|
         (lambda ((x |(Z x Z)|))
           (|set.in (Z x Z)| (maplet (snd x) (fst x)) R)))))
  :named |def.reverse (Z x Z)|))
(define-sort |? Z| () (-> |Z| Bool))
(declare-const |set.intent Z| (-> |? Z| |POW Z|))
(assert (!
  (forall ((p |? Z|))
    (forall ((x |Z|))
      (= (|set.in Z| x (|set.intent Z| p))
         (@ p x))))
  :named |ax:set.in.intent Z|))
(declare-fun |rel.image Z Z| (|POW (Z x Z)| |POW Z|) |POW Z|)
(assert (!
  (forall ((r |POW (Z x Z)|) (s |POW Z|) (x |Z|))
    (= (|set.in Z| x (|rel.image Z Z| r s))
       (exists ((y |Z|)) (and (|set.in Z| y s) (|set.in (Z x Z)| (maplet y x) r)))))
  :named |ax:set.in.image (Z x POW (Z x Z))|))
(declare-fun |set.diff s16| (|POW s16| |POW s16|) |POW s16|)
(assert (!
  (forall ((e |s16|) (s |POW s16|) (t |POW s16|))
    (= (|set.in s16| e (|set.diff s16| s t))
       (and (|set.in s16| e s) (not (|set.in s16| e t)))))
  :named |ax.set.in.diff s16|))
(define-sort |? s16| () (-> |s16| Bool))
(declare-const |set.intent s16| (-> |? s16| |POW s16|))
(assert (!
  (forall ((p |? s16|))
    (forall ((x |s16|))
      (= (|set.in s16| x (|set.intent s16| p))
         (@ p x))))
  :named |ax:set.in.intent s16|))
(assert (!
  (|set.in Z| s43 (|interval| s28 (+ s28 (* 65534 1024))))
  :named |Local_Hyp:1|))
(assert (!
  (|set.in Z| s45 (|interval| s28 (+ s28 (* 65534 1024))))
  :named |Local_Hyp:3|))
(assert (!
  (|set.in POW (Z x Z)| s38 (|functions.partial Z Z| s27 s24))
  :named |Local_Hyp:4|))
(assert (!
  (= (|rel.image Z Z| (|~ Z Z| s38) (|set.intent Z| (lambda ((_c0 |Z|)) (= _c0 s25)))) (|interval| 0 (- s1 1)))
  :named |Local_Hyp:5|))
(assert (!
  (= (|rel.image Z Z| (|~ Z Z| s38) (|set.intent Z| (lambda ((_c0 |Z|)) (= _c0 s26)))) (|interval| s22 (- s23 1)))
  :named |Local_Hyp:6|))
(assert (!
  (|set.in POW (s16 x POW Z)| s41 (|functions.total s16 POW Z| s16 (|sub-sets Z| (|interval| s31 (- s32 1)))))
  :named |Local_Hyp:7|))
(assert (!
  (|set.in POW (s16 x POW (Z x s8))| s47 (|functions.total s16 POW (Z x s8)| s16 (|relations Z s8| (|rel.domain Z Z| s38) (|set.intent s8| (lambda ((_c0 |s8|)) (or (= _c0 s12)(= _c0 s13)))))))
  :named |Local_Hyp:8|))
(assert (!
  (|set.in POW (s16 x POW (Z x s8))| s48 (|functions.total s16 POW (Z x s8)| s16 (|relations Z s8| (|set.inter Z| (|rel.domain Z Z| s38) (|interval| s28 4294967295)) (|set.intent s8| (lambda ((_c0 |s8|)) (= _c0 s14))))))
  :named |Local_Hyp:9|))
(assert (!
  (|set.in POW (s16 x POW (Z x s8))| s49 (|functions.total s16 POW (Z x s8)| s16 (|relations Z s8| (|interval| 0 (- s1 1)) (|set.intent s8| (lambda ((_c0 |s8|)) (= _c0 s12))))))
  :named |Local_Hyp:10|))
(assert (!
  (|set.in POW (s16 x POW (Z x s8))| s50 (|functions.total s16 POW (Z x s8)| s16 (|relations Z s8| (|interval| 0 (- s1 1)) (|set.intent s8| (lambda ((_c0 |s8|)) (or (= _c0 s12)(= _c0 s13)))))))
  :named |Local_Hyp:11|))
(assert (!
  (= (|set.inter (Z x s8)| (|fun.eval s16 POW (Z x s8)| s47 s17) (|set.product Z s8| (|interval| s28 (- s45 1)) (|set.intent s8| (lambda ((_c0 |s8|)) (= _c0 s13))))) |set.empty (Z x s8)|)
  :named |Local_Hyp:12|))
(assert (!
  (forall
  ((s34 |s16|))
  (=>
    (|set.in s16| s34 (|set.diff s16| s16 (|set.intent s16| (lambda ((_c0 |s16|)) (or (= _c0 s17)(= _c0 s18))))))
    (|set.subseteq (Z x s8)| (|set.product Z s8| (|interval| s28 (- (|min| (|set.intent Z| (lambda ((_c0 |Z|)) (or (= _c0 s45)(= _c0 s43)(= _c0 s33))))) 1)) (|set.intent s8| (lambda ((_c0 |s8|)) (= _c0 s13)))) (|fun.eval s16 POW (Z x s8)| s47 s34))))
  :named |Local_Hyp:14|))
(assert (!
  (= s1 10240)
  :named |Define:aprp:3|))
(assert (!
  (= s22 65536)
  :named |Define:aprp:4|))
(assert (!
  (= s23 69632)
  :named |Define:aprp:5|))
(assert (!
  (|set.in Z| s25 s24)
  :named |Define:aprp:7|))
(assert (!
  (|set.in Z| s26 s24)
  :named |Define:aprp:8|))
(assert (!
  (not
  (= s25 s26))
  :named |Define:aprp:9|))
(assert (!
  (= s27 (|interval| 0 4294967295))
  :named |Define:aprp:10|))
(assert (!
  (= s28 131072)
  :named |Define:aprp:11|))
(assert (!
  (= s31 66048)
  :named |Define:aprp:14|))
(assert (!
  (= s32 66176)
  :named |Define:aprp:15|))
(assert (!
  (= s33 556032)
  :named |Define:aprp:16|))
(assert (!
  (= (|set.inter Z| s0 (|interval| 0 (- s1 1))) |set.empty Z|)
  :named |Define:lprp:0|))
(assert (!
  (= s0 (|interval| 1241088 1241599))
  :named |Define:aprp:17|))
(assert (!
  (not
    (|set.in s16| s21 (|rel.domain s16 POW (Z x s8)| s47)))
  :named |Goal|))
(check-sat)
(exit)
